open_stacks/problem_30_10_1.sol
objective = 12;
s = [2, 9, 1, 3, 7, 6, 8, 10, 4, 5];
